Problem:    
Rows:       248
Columns:    89 (72 integer, 72 binary)
Non-zeros:  820
Status:     INTEGER OPTIMAL
Objective:  value = 21.134247 (MINimum)

   No.   Row name        Activity     Lower bound   Upper bound
------ ------------    ------------- ------------- -------------
     1 r.5                   521.134             0               
     2 r.6                  -496.348      -496.986               
     3 r.7                   21.1342             0               
     4 r.8                   9.57531       -491.75               
     5 r.9                   521.134             0               
     6 r.10                 -485.175      -496.606               
     7 r.11                  21.1342             0               
     8 r.12                 -468.196      -492.021               
     9 r.13                  21.1342             0               
    10 r.14                  11.4303      -495.222               
    11 r.15                  521.134             0               
    12 r.16                 -482.175      -496.132               
    13 r.17                  21.1342             0               
    14 r.18                 -479.745       -497.57               
    15 r.19                  521.134             0               
    16 r.20                 -489.044      -495.619               
    17 r.21                  21.1342             0               
    18 r.22                 0.638399      -497.762               
    19 r.23                  521.134             0               
    20 r.24                 -486.044      -498.583               
    21 r.25                  21.1342             0               
    22 r.26                   6.6522      -493.685               
    23 r.27                  521.134             0               
    24 r.28                 -479.175       -499.79               
    25 r.29                  21.1342             0               
    26 r.30                 0.336719      -493.843               
    27 r.31                  521.134             0               
    28 r.32                 -478.866       -499.69               
    29 r.33                  21.1342             0               
    30 r.34                 -499.754      -499.754               
    31 r.35                  521.134             0               
    32 r.36                 -499.425      -499.425               
    33 r.37                        1             1             = 
    34 r.38                        1             1             = 
    35 r.39                        1             1             = 
    36 r.40                        1             1             = 
    37 r.41                        1             1             = 
    38 r.42                        1             1             = 
    39 r.43                        1             1             = 
    40 r.44                        1             1             = 
    41 r.45                  8.17243       3.39429               
    42 r.46                 -11.1724      -496.986               
    43 r.47                  25.2282       7.97889               
    44 r.48                 -22.2282       -491.75               
    45 r.49                  4.77814       4.77814               
    46 r.50                 -4.77814      -496.986               
    47 r.51                  11.2493       3.86849               
    48 r.52                 -11.2493       -491.75               
    49 r.53                  13.6029       2.43048               
    50 r.54                 -13.6029      -496.986               
    51 r.55                  4.38083       4.38083               
    52 r.56                 -4.38083       -491.75               
    53 r.57                  493.986       2.23784               
    54 r.58                 -493.986      -496.986               
    55 r.59                  7.38083       1.41655               
    56 r.60                 -7.38083       -491.75               
    57 r.61                        0      -490.685               
    58 r.62                 -485.828       -496.79               
    59 r.63                 0.076891      -490.685               
    60 r.64                 -485.751       -496.79               
    61 r.65                  493.685       6.15704               
    62 r.66                 -493.685      -496.986               
    63 r.67                  14.5589      0.309614               
    64 r.68                 -14.5589       -491.75               
    65 r.69                   6.4062      -493.986               
    66 r.70                  506.329       -488.75               
    67 r.71                 -493.923      -493.986               
    68 r.72                        6       -488.75               
    69 r.73                  485.828        3.0138               
    70 r.74                 -488.828      -496.606               
    71 r.75                  480.772       8.25049               
    72 r.76                 -477.772      -492.021               
    73 r.77                  493.606       4.77814               
    74 r.78                 -493.606      -496.606               
    75 r.79                  489.021       3.86849               
    76 r.80                 -489.021      -492.021               
    77 r.81                  2.43048       2.43048               
    78 r.82                 -2.43048      -496.606               
    79 r.83                  482.153       4.38083               
    80 r.84                 -482.153      -492.021               
    81 r.85                  482.814       2.23784               
    82 r.86                 -482.814      -496.606               
    83 r.87                  485.153       1.41655               
    84 r.88                 -485.153      -492.021               
    85 r.89                  488.828       6.31548               
    86 r.90                 -488.828      -496.606               
    87 r.91                  492.021      0.209615               
    88 r.92                 -492.021      -492.021               
    89 r.93                 -17.4879      -490.843               
    90 r.94                  -496.69       -496.69               
    91 r.95                  471.533      -490.843               
    92 r.96                 -7.66927       -496.69               
    93 r.97                  17.5786      -493.606               
    94 r.98                  28.5575      -489.021               
    95 r.99                 -482.751      -493.606               
    96 r.100                -471.772      -489.021               
    97 r.101                 492.222        3.0138               
    98 r.102                -495.222      -495.222               
    99 r.103                 491.751       8.25049               
   100 r.104                -488.751      -496.132               
   101 r.105                 3.39429       3.39429               
   102 r.106                -6.39429      -495.222               
   103 r.107                 13.9789       7.97889               
   104 r.108                -10.9789      -496.132               
   105 r.109                 491.175      -492.222               
   106 r.110                -2.43048      -493.132               
   107 r.111                0.474202      -492.222               
   108 r.112                -493.132      -493.132               
   109 r.113                 489.208       2.23784               
   110 r.114                -489.208      -495.222               
   111 r.115                 496.132       1.41655               
   112 r.116                -496.132      -496.132               
   113 r.117                 495.222       6.31548               
   114 r.118                -495.222      -495.222               
   115 r.119                       3      0.209615               
   116 r.120                      -3      -496.132               
   117 r.121                -11.0936      -490.843               
   118 r.122                -490.296       -496.69               
   119 r.123                -17.4879      -490.843               
   120 r.124                 -496.69       -496.69               
   121 r.125                 511.184      -492.222               
   122 r.126                 17.5786      -493.132               
   123 r.127                  10.855      -492.222               
   124 r.128                -482.751      -493.132               
   125 r.129                 483.397        3.0138               
   126 r.130                -486.397       -497.57               
   127 r.131                 498.619       8.25049               
   128 r.132                -495.619      -495.619               
   129 r.133                  494.57       3.39429               
   130 r.134                 -497.57       -497.57               
   131 r.135                 20.8474       7.97889               
   132 r.136                -17.8474      -495.619               
   133 r.137                 491.175      -492.222               
   134 r.138                -2.43048      -493.132               
   135 r.139                0.474202      -492.222               
   136 r.140                -493.132      -493.132               
   137 r.141                 480.383       2.23784               
   138 r.142                -480.383       -497.57               
   139 r.143                       3       1.41655               
   140 r.144                      -3      -495.619               
   141 r.145                 486.397       6.31548               
   142 r.146                -486.397       -497.57               
   143 r.147                 9.86849      0.209615               
   144 r.148                -9.86849      -495.619               
   145 r.149                 480.082      -490.843               
   146 r.150                0.879134       -496.69               
   147 r.151                -10.6194      -490.843               
   148 r.152                -489.822       -496.69               
   149 r.153                 20.0091       -491.57               
   150 r.154                 10.7101      -489.619               
   151 r.155                 -480.32       -491.57               
   152 r.156                -489.619      -489.619               
   153 r.157                  3.0138        3.0138               
   154 r.158                 -6.0138      -497.762               
   155 r.159                 495.619       8.25049               
   156 r.160                -492.619      -498.583               
   157 r.161                 14.1862       3.39429               
   158 r.162                -17.1862      -497.762               
   159 r.163                 17.8474       7.97889               
   160 r.164                -14.8474      -498.583               
   161 r.165                 10.7919       4.77814               
   162 r.166                -10.7919      -497.762               
   163 r.167                 3.86849       3.86849               
   164 r.168                -3.86849      -498.583               
   165 r.169                 19.6167       2.43048               
   166 r.170                -19.6167      -497.762               
   167 r.171                     497       4.38083               
   168 r.172                    -497      -498.583               
   169 r.173                  6.0138      -490.685               
   170 r.174                -479.814       -496.79               
   171 r.175                -7.30394      -490.685               
   172 r.176                -493.132       -496.79               
   173 r.177                -0.30168      -490.843               
   174 r.178                -479.504       -496.69               
   175 r.179                -13.6194      -490.843               
   176 r.180                -492.822       -496.69               
   177 r.181                 500.392      -491.762               
   178 r.182                 13.7101      -492.583               
   179 r.183                0.063091      -491.762               
   180 r.184                -486.619      -492.583               
   181 r.185                       0      -490.685               
   182 r.186                -485.828       -496.79               
   183 r.187                0.076891      -490.685               
   184 r.188                -485.751       -496.79               
   185 r.189                 8.17243       3.39429               
   186 r.190                -11.1724      -493.685               
   187 r.191                 10.9789       7.97889               
   188 r.192                -7.97889       -499.79               
   189 r.193                 4.77814       4.77814               
   190 r.194                -4.77814      -493.685               
   191 r.195                     497       3.86849               
   192 r.196                    -497       -499.79               
   193 r.197                 13.6029       2.43048               
   194 r.198                -13.6029      -493.685               
   195 r.199                 490.132       4.38083               
   196 r.200                -490.132       -499.79               
   197 r.201                  6.0138      -490.685               
   198 r.202                -479.814       -496.79               
   199 r.203                -7.30394      -490.685               
   200 r.204                -493.132       -496.79               
   201 r.205                 493.685       6.15704               
   202 r.206                -493.685      -493.685               
   203 r.207                0.309614      0.309614               
   204 r.208               -0.309614       -499.79               
   205 r.209                 3.31548        3.0138               
   206 r.210                -6.31548      -493.843               
   207 r.211                 488.441       8.25049               
   208 r.212                -485.441       -499.69               
   209 r.213                -17.4879      -490.843               
   210 r.214                 -496.69       -496.69               
   211 r.215                 471.533      -490.843               
   212 r.216                -7.66927       -496.69               
   213 r.217                -11.0936      -490.843               
   214 r.218                -490.296       -496.69               
   215 r.219                -17.4879      -490.843               
   216 r.220                 -496.69       -496.69               
   217 r.221                 480.082      -490.843               
   218 r.222                0.879134       -496.69               
   219 r.223                -10.6194      -490.843               
   220 r.224                -489.822       -496.69               
   221 r.225                -0.30168      -490.843               
   222 r.226                -479.504       -496.69               
   223 r.227                -13.6194      -490.843               
   224 r.228                -492.822       -496.69               
   225 r.229                 6.31548       6.31548               
   226 r.230                -6.31548      -493.843               
   227 r.231                  499.69      0.209615               
   228 r.232                 -499.69       -499.69               
   229 r.233                  6.4062      -493.986               
   230 r.234                 506.329       -488.75               
   231 r.235                -493.923      -493.986               
   232 r.236                       6       -488.75               
   233 r.237                 17.5786      -493.606               
   234 r.238                 28.5575      -489.021               
   235 r.239                -482.751      -493.606               
   236 r.240                -471.772      -489.021               
   237 r.241                 511.184      -492.222               
   238 r.242                 17.5786      -493.132               
   239 r.243                  10.855      -492.222               
   240 r.244                -482.751      -493.132               
   241 r.245                 20.0091       -491.57               
   242 r.246                 10.7101      -489.619               
   243 r.247                 -480.32       -491.57               
   244 r.248                -489.619      -489.619               
   245 r.249                 500.392      -491.762               
   246 r.250                 13.7101      -492.583               
   247 r.251                0.063091      -491.762               
   248 r.252                -486.619      -492.583               

   No. Column name       Activity     Lower bound   Upper bound
------ ------------    ------------- ------------- -------------
     1 tt                    21.1342             0               
     2 s_1_1        *              1             0             1 
     3 t_1_1                  14.482             0               
     4 s_1_6        *              0             0             1 
     5 s_2_1        *              0             0             1 
     6 t_2_1                 14.5589             0               
     7 s_2_6        *              1             0             1 
     8 s_1_2        *              1             0             1 
     9 t_1_2                 3.30961             0               
    10 s_1_7        *              0             0             1 
    11 s_2_2        *              0             0             1 
    12 t_2_2                 492.331             0               
    13 s_2_7        *              1             0             1 
    14 s_1_3        *              0             0             1 
    15 t_1_3                 9.70391             0               
    16 s_2_3        *              1             0             1 
    17 t_2_3                 3.30961             0               
    18 s_1_4        *              0             0             1 
    19 t_1_4                 500.879             0               
    20 s_2_4        *              1             0             1 
    21 t_2_4                 10.1781             0               
    22 s_1_5        *              0             0             1 
    23 t_1_5                 20.4958             0               
    24 s_2_5        *              1             0             1 
    25 t_2_5                 7.17811             0               
    26 t_1_6                  14.482             0               
    27 t_2_6                0.309614             0               
    28 t_1_7                 20.7975             0               
    29 t_2_7                       0             0               
    30 s_1_8        *              0             0             1 
    31 t_1_8                 520.888             0               
    32 s_2_8        *              1             0             1 
    33 t_2_8                 20.5589             0               
    34 u_1_1_2      *              0             0             1 
    35 u_2_1_2      *              1             0             1 
    36 u_1_1_3      *              0             0             1 
    37 u_2_1_3      *              0             0             1 
    38 u_1_1_4      *              1             0             1 
    39 u_2_1_4      *              0             0             1 
    40 u_1_1_5      *              1             0             1 
    41 u_2_1_5      *              0             0             1 
    42 u_1_1_7      *              1             0             1 
    43 u_2_1_7      *              0             0             1 
    44 u_1_2_1      *              1             0             1 
    45 u_2_2_1      *              0             0             1 
    46 u_1_2_3      *              1             0             1 
    47 u_2_2_3      *              0             0             1 
    48 u_1_2_4      *              1             0             1 
    49 u_2_2_4      *              0             0             1 
    50 u_1_2_5      *              1             0             1 
    51 u_2_2_5      *              0             0             1 
    52 u_1_2_6      *              1             0             1 
    53 u_2_2_6      *              0             0             1 
    54 u_1_3_1      *              1             0             1 
    55 u_2_3_1      *              1             0             1 
    56 u_1_3_2      *              0             0             1 
    57 u_2_3_2      *              1             0             1 
    58 u_1_3_5      *              1             0             1 
    59 u_2_3_5      *              1             0             1 
    60 u_1_3_6      *              1             0             1 
    61 u_2_3_6      *              0             0             1 
    62 u_1_4_1      *              0             0             1 
    63 u_2_4_1      *              1             0             1 
    64 u_1_4_2      *              0             0             1 
    65 u_2_4_2      *              1             0             1 
    66 u_1_4_5      *              0             0             1 
    67 u_2_4_5      *              0             0             1 
    68 u_1_4_6      *              0             0             1 
    69 u_2_4_6      *              0             0             1 
    70 u_1_5_1      *              0             0             1 
    71 u_2_5_1      *              1             0             1 
    72 u_1_5_2      *              0             0             1 
    73 u_2_5_2      *              1             0             1 
    74 u_1_5_3      *              0             0             1 
    75 u_2_5_3      *              0             0             1 
    76 u_1_5_4      *              1             0             1 
    77 u_2_5_4      *              1             0             1 
    78 u_1_6_2      *              0             0             1 
    79 u_2_6_2      *              1             0             1 
    80 u_1_6_3      *              0             0             1 
    81 u_2_6_3      *              1             0             1 
    82 u_1_6_4      *              1             0             1 
    83 u_2_6_4      *              1             0             1 
    84 u_1_6_7      *              1             0             1 
    85 u_2_6_7      *              0             0             1 
    86 u_1_7_1      *              0             0             1 
    87 u_2_7_1      *              1             0             1 
    88 u_1_7_6      *              0             0             1 
    89 u_2_7_6      *              1             0             1 

Integer feasibility conditions:

KKT.PE: max.abs.err = 1.14e-13 on row 16
        max.rel.err = 1.11e-16 on row 127
        High quality

KKT.PB: max.abs.err = 5.68e-14 on row 30
        max.rel.err = 3.37e-15 on row 77
        High quality

End of output
